580.17,64.9,74.12
552.96,68.09,77.77
560.76,67.14,76.68
584.22,64.45,73.61
561.62,67.04,76.57
580.39,64.87,74.09
546.66,68.88,78.66
510.64,73.73,84.21
567.97,66.29,75.71
606.1,62.12,70.95
582.65,64.62,73.8
598.46,62.91,71.85
605.45,62.19,71.02
591.17,63.69,72.74
628.54,59.9,68.42
552.47,68.15,77.84
576.81,65.28,74.55
558.06,67.47,77.06
574.53,65.54,74.85
547.73,68.74,78.51
